29 39
27 25
48 10
9 26
24 22
48 18
3 18
39 31
31 6
16 2
18 42
37 14
46 7
8 5
45 28
36 3
19 46
45 29
13 37
41 16
16 30
17 47
33 19
22 14
36 10
44 45
10 20
34 22
3 10
26 24
26 13
24 31
24 41
22 9
23 44
8 41
11 34
36 38
34 22
1 3
36 14
1 46
43 25
11 43
11 49
27 24
21 22
8 23
20 22
14 11
